300
500
348
348
345
345
345
344
342
341
339
338
338
337
336
335
335
334
334
333
333
331
329
328
328
327
326
323
322
322
321
320
318
317
317
316
316
314
313
313
312
311
309
309
307
306
305
302
301
301
300
299
298
298
297
295
295
295
294
294
294
294
294
294
292
291
290
290
289
289
289
289
288
288
287
287
286
285
283
281
281
279
279
277
277
275
275
274
274
273
273
272
272
269
269
268
268
266
266
265
265
265
262
261
260
259
259
257
257
257
257
256
255
254
253
252
252
251
251
250
248
248
248
247
247
241
241
240
239
239
237
236
233
232
231
230
229
229
228
226
225
224
224
224
223
222
222
222
221
221
219
218
218
217
215
215
215
214
214
213
213
212
211
211
211
210
209
208
208
205
205
204
204
203
203
203
200
198
198
198
198
196
196
196
194
193
192
192
191
191
191
189
188
188
187
186
185
184
184
183
183
183
181
180
177
177
176
176
176
175
175
173
173
170
170
170
170
168
167
167
166
166
165
165
165
164
161
161
160
160
159
159
155
155
151
151
151
150
148
147
147
147
146
145
144
144
143
143
142
138
136
136
135
134
133
133
132
132
131
127
126
126
126
126
125
123
121
118
118
118
116
115
115
115
113
113
112
112
112
112
111
111
110
109
109
109
107
107
106
106
105
105
105
105
104
104
104
103
101
101
100
100
